set NODES := 0 1 2 3 4 5 6;

param C :
    0   1   2   3   4   5   6 :=
0  -1  -1  -1  594  990  466  -1
1  761  -1  717  603  667  393  839
2  766  -1  -1  413  453  575  303
3  171  286  753  -1  550  -1  -1
4  881  690  520  721  -1  129  -1
5  289  631  -1  435  129  -1  367
6  367  872  228  517  603  377  -1
;

set PROHIBITED := ;

param start_node := 0;
param end_node := 6;
